(set-info :smt-lib-version 2.6)
(set-info :category "crafted")
(set-logic QF_FF)
(define-sort FF0 () (_ FiniteField 52435875175126190479447740508185965837690552500527637822603658699938581184513))
(declare-fun x19 () Bool)
(declare-fun x18 () Bool)
(declare-fun x17 () Bool)
(declare-fun x16 () Bool)
(declare-fun x15 () Bool)
(declare-fun x14 () Bool)
(declare-fun x13 () Bool)
(declare-fun x12 () Bool)
(declare-fun x11 () Bool)
(declare-fun x10 () Bool)
(declare-fun x9 () Bool)
(declare-fun x8 () Bool)
(declare-fun x7 () Bool)
(declare-fun x6 () Bool)
(declare-fun x5 () Bool)
(declare-fun x4 () Bool)
(declare-fun x3 () Bool)
(declare-fun x2 () Bool)
(declare-fun x1 () Bool)
(declare-fun x0 () Bool)
(declare-fun return_n18 () FF0)
(declare-fun x16_n3 () FF0)
(declare-fun x14_n6 () FF0)
(declare-fun x13_n9 () FF0)
(declare-fun x11_n12 () FF0)
(declare-fun x15_n15 () FF0)
(declare-fun x8_n1 () FF0)
(declare-fun x10_n4 () FF0)
(declare-fun x3_n7 () FF0)
(declare-fun x5_n10 () FF0)
(declare-fun x1_n13 () FF0)
(declare-fun x19_n16 () FF0)
(declare-fun x18_n19 () FF0)
(declare-fun x4_n2 () FF0)
(declare-fun x0_n5 () FF0)
(declare-fun x9_n8 () FF0)
(declare-fun x17_n11 () FF0)
(declare-fun x7_n14 () FF0)
(declare-fun x6_n17 () FF0)
(declare-fun x2_n20 () FF0)
(declare-fun x12_n0 () FF0)
(declare-fun is_zero_inv_n21 () FF0)
(assert 
  (let ((let0 x19))
  (let ((let1 x18))
  (let ((let2 x17))
  (let ((let3 x16))
  (let ((let4 x15))
  (let ((let5 x14))
  (let ((let6 x13))
  (let ((let7 x12))
  (let ((let8 x11))
  (let ((let9 x10))
  (let ((let10 x9))
  (let ((let11 x8))
  (let ((let12 x7))
  (let ((let13 x6))
  (let ((let14 x5))
  (let ((let15 x4))
  (let ((let16 x3))
  (let ((let17 x2))
  (let ((let18 x1))
  (let ((let19 x0))
  (let ((let20 (or let19 let18 let17 let16 let15 let14 let13 let12 let11 let10 let9 let8 let7 let6 let5 let4 let3 let2 let1 let0)))
  (let ((let21 return_n18))
  (let ((let22 (as ff1 FF0)))
  (let ((let23 (= let22 let21)))
  (let ((let24 (= let23 let20)))
  (let ((let25 (as ff0 FF0)))
  (let ((let26 (= let25 let21)))
  (let ((let27 (or let23 let26)))
  (let ((let28 (and let27 let24)))
  (let ((let29 x16_n3))
  (let ((let30 x14_n6))
  (let ((let31 x13_n9))
  (let ((let32 x11_n12))
  (let ((let33 x15_n15))
  (let ((let34 x8_n1))
  (let ((let35 x10_n4))
  (let ((let36 x3_n7))
  (let ((let37 x5_n10))
  (let ((let38 x1_n13))
  (let ((let39 x19_n16))
  (let ((let40 x18_n19))
  (let ((let41 x4_n2))
  (let ((let42 x0_n5))
  (let ((let43 x9_n8))
  (let ((let44 x17_n11))
  (let ((let45 x7_n14))
  (let ((let46 x6_n17))
  (let ((let47 x2_n20))
  (let ((let48 x12_n0))
  (let ((let49 (ff.add let48 let47 let46 let45 let44 let43 let42 let41 let40 let39 let38 let37 let36 let35 let34 let33 let32 let31 let30 let29)))
  (let ((let50 is_zero_inv_n21))
  (let ((let51 (ff.mul let50 let49)))
  (let ((let52 (= let51 let21)))
  (let ((let53 (ite let7 let22 let25)))
  (let ((let54 (= let48 let53)))
  (let ((let55 (ite let12 let22 let25)))
  (let ((let56 (= let45 let55)))
  (let ((let57 (ite let5 let22 let25)))
  (let ((let58 (= let30 let57)))
  (let ((let59 (ite let8 let22 let25)))
  (let ((let60 (= let32 let59)))
  (let ((let61 (ite let9 let22 let25)))
  (let ((let62 (= let35 let61)))
  (let ((let63 (ite let19 let22 let25)))
  (let ((let64 (= let42 let63)))
  (let ((let65 (ite let0 let22 let25)))
  (let ((let66 (= let39 let65)))
  (let ((let67 (ite let4 let22 let25)))
  (let ((let68 (= let33 let67)))
  (let ((let69 (ite let13 let22 let25)))
  (let ((let70 (= let46 let69)))
  (let ((let71 (ite let10 let22 let25)))
  (let ((let72 (= let43 let71)))
  (let ((let73 (ite let3 let22 let25)))
  (let ((let74 (= let29 let73)))
  (let ((let75 (ite let11 let22 let25)))
  (let ((let76 (= let34 let75)))
  (let ((let77 (ite let17 let22 let25)))
  (let ((let78 (= let47 let77)))
  (let ((let79 (ite let18 let22 let25)))
  (let ((let80 (= let38 let79)))
  (let ((let81 (ite let15 let22 let25)))
  (let ((let82 (= let41 let81)))
  (let ((let83 (ite let16 let22 let25)))
  (let ((let84 (= let36 let83)))
  (let ((let85 (ite let14 let22 let25)))
  (let ((let86 (= let37 let85)))
  (let ((let87 (ite let1 let22 let25)))
  (let ((let88 (= let40 let87)))
  (let ((let89 (ite let2 let22 let25)))
  (let ((let90 (= let44 let89)))
  (let ((let91 (ite let6 let22 let25)))
  (let ((let92 (= let31 let91)))
  (let ((let93 (and let92 let90 let88 let86 let84 let82 let80 let78 let76 let74 let72 let70 let68 let66 let64 let62 let60 let58 let56 let54)))
  (let ((let94 (and let93 let52)))
  (let ((let95 (=> let94 let28)))
  (let ((let96 (not let95)))
  let96
)))))))))))))))))))))))))))))))))))))))))))))))))))))))))))))))))))))))))))))))))))))))))))))))))
)
(check-sat)
